NAME Convert
ROWS
 N  OBJ
 E  e1      
 L  e2      
 L  e3      
 G  e4      
 G  e5      
 G  e6      
 E  singleton_1
 E  singleton_2
 E  singleton_3
 L  zero_row
COLUMNS
    x1        e1        -0.225
    x1        e2        1
    x1        e4        1
    x1        singleton_1  1
    x1        singleton_2  1
    x1        singleton_3  1
    x2        e1        -0.153
    x2        e2        1
    x2        e5        1
    x2        singleton_2  1
    x2        singleton_3  1
    x3        e1        -0.162
    x3        e2        1
    x3        e6        1
    x3        singleton_3  1
    x4        e1        -0.225
    x4        e3        1
    x4        e4        1
    x5        e1        -0.162
    x5        e3        1
    x5        e5        1
    x6        e1        -0.126
    x6        e3        1
    x6        e6        1
    x7        OBJ       1
    x7        e1        1
    x8        OBJ       0
RHS
    RHS1      e2        350
    RHS1      e3        600
    RHS1      e4        325
    RHS1      e5        300
    RHS1      e6        275
    RHS1      singleton_1  50
    RHS1      singleton_2  350
    RHS1      singleton_3  350
    RHS1      zero_row  10
BOUNDS
 FR BND1      x7      
ENDATA
